(declare-const a Real)
(declare-const b Real)
(declare-const c Real)
(assert (= (+ a b c) 3))
(assert (not (<= (+ (* a c) (* b c) (* (pow (* a (pow c 2)) (pow (+ (/ 3 2) (* (/ 1 2) (pow b 2))) -1)) (+ (/ -3 2) (* (/ -1 2) (pow b 2))))) 0)))
(check-sat)
(get-model)
(exit)